Minimize
  0.05 y_0 + 0.0769230769230769 y_1 + 0.05 y_2 + 0.1 y_3
   + 0.0714285714285714 y_4 + 0.1666666666666667 y_5
   + 0.0588235294117647 y_6 + 0.1428571428571428 y_7 + y_8
   + 0.0526315789473684 y_9 + 0.1 y_10 + 0.1111111111111111 y_11
   + 0.1111111111111111 y_12 + 0.0714285714285714 y_13
   + 0.0526315789473684 y_14 + 0.0833333333333333 y_15 + 0.05 y_16
   + 0.0909090909090909 y_17 + 0.0666666666666667 y_18
   + 0.0526315789473684 y_19 - 2.559153608689213 Constant
Subject To
 c_0: y_2 = 1
 c_1_0: y_0 + y_6 + y_9 + y_16 >= 1
 c_1_1: y_1 + y_3 + y_10 + y_13 + y_15 + y_18 >= 1
 c_1_2: y_2 + y_19 >= 1
 c_1_3: y_1 + y_3 + y_5 + y_10 + y_12 + y_15 >= 1
 c_1_4: y_4 + y_17 >= 1
 c_1_5: y_3 + y_5 + y_7 + y_12 >= 1
 c_1_6: y_0 + y_6 + y_9 + y_14 >= 1
 c_1_7: y_5 + y_7 + y_12 >= 1
 c_1_8: y_8 >= 1
 c_1_9: y_0 + y_6 + y_9 + y_14 >= 1
 c_1_10: y_1 + y_3 + y_10 + y_12 + y_15 >= 1
 c_1_11: y_11 >= 1
 c_1_12: y_3 + y_5 + y_7 + y_10 + y_12 + y_15 >= 1
 c_1_13: y_1 + y_13 + y_18 >= 1
 c_1_14: y_6 + y_9 + y_14 >= 1
 c_1_15: y_1 + y_3 + y_10 + y_12 + y_15 + y_18 >= 1
 c_1_16: y_0 + y_16 >= 1
 c_1_17: y_4 + y_17 >= 1
 c_1_18: y_1 + y_13 + y_15 + y_18 >= 1
 c_1_19: y_2 + y_19 >= 1
Bounds
 Constant = 1
Binaries
 y_0 y_1 y_2 y_3 y_4 y_5 y_6 y_7 y_8 y_9 y_10 y_11 y_12 y_13 y_14 y_15 y_16
 y_17 y_18 y_19
End
